sat
(:binary-propagations  321
 :decisions            384
 :del-clause           99
 :final-checks         4
 :max-generation       1
 :max-memory           23.98
 :memory               21.14
 :mk-bool-var          620
 :mk-clause            169
 :mk-clause-binary     420
 :num-allocs           9734638
 :num-checks           1
 :propagations         378
 :quant-instantiations 100
 :restarts             3
 :rlimit-count         131526
 :time                 0.03)
